networks/zoo_121_2929/zoo_121_2929-lower.sol
<?xml version = "1.0" encoding="UTF-8" standalone="yes"?>
<CPLEXSolution version="1.2">
 <header
   problemName="networks/zoo_121_2929/zoo_121_2929-lower.lp"
   solutionName="incumbent"
   solutionIndex="-1"
   objectiveValue="63"
   solutionTypeValue="3"
   solutionTypeString="primal"
   solutionStatusValue="101"
   solutionStatusString="integer optimal solution"
   solutionMethodString="mip"
   primalFeasible="1"
   dualFeasible="1"
   MIPNodes="0"
   MIPIterations="15"
   writeLevel="3"/>
 <quality
   epInt="1.0000000000000001e-05"
   epRHS="9.9999999999999995e-07"
   maxIntInfeas="0"
   maxPrimalInfeas="0"
   maxX="1"
   maxSlack="1"/>
 <variables>
  <variable name="Y(53,57)" index="6244" value="1"/>
  <variable name="Y(92,11)" index="10839" value="1"/>
  <variable name="Y(136,36)" index="16100" value="1"/>
  <variable name="Y(168,25)" index="19897" value="1"/>
  <variable name="Y(281,44)" index="33363" value="1"/>
  <variable name="Y(306,11)" index="36305" value="1"/>
  <variable name="Y(404,54)" index="48010" value="1"/>
  <variable name="Y(417,7)" index="49510" value="1"/>
  <variable name="Y(428,20)" index="50832" value="1"/>
  <variable name="Y(502,53)" index="59671" value="1"/>
  <variable name="Y(507,59)" index="60272" value="1"/>
  <variable name="Y(591,29)" index="70238" value="1"/>
  <variable name="Y(643,24)" index="76421" value="1"/>
  <variable name="Y(700,41)" index="83221" value="1"/>
  <variable name="Y(848,39)" index="100831" value="1"/>
  <variable name="Y(881,32)" index="104751" value="1"/>
  <variable name="Y(996,42)" index="118446" value="1"/>
  <variable name="Y(1073,9)" index="127576" value="1"/>
  <variable name="Y(1089,27)" index="129498" value="1"/>
  <variable name="Y(1196,23)" index="142227" value="1"/>
  <variable name="Y(1242,30)" index="147708" value="1"/>
  <variable name="Y(1271,10)" index="151139" value="1"/>
  <variable name="Y(1283,22)" index="152579" value="1"/>
  <variable name="Y(1371,58)" index="163087" value="1"/>
  <variable name="Y(1379,6)" index="163987" value="1"/>
  <variable name="Y(1452,45)" index="172713" value="1"/>
  <variable name="Y(1496,40)" index="177944" value="1"/>
  <variable name="Y(1517,15)" index="180418" value="1"/>
  <variable name="Y(1554,34)" index="184840" value="1"/>
  <variable name="Y(1616,49)" index="192233" value="1"/>
  <variable name="Y(1628,4)" index="193616" value="1"/>
  <variable name="Y(1682,17)" index="200055" value="1"/>
  <variable name="Y(1782,5)" index="211943" value="1"/>
  <variable name="Y(1821,47)" index="216626" value="1"/>
  <variable name="Y(1906,18)" index="226712" value="1"/>
  <variable name="Y(1925,38)" index="228993" value="1"/>
  <variable name="Y(1957,14)" index="232777" value="1"/>
  <variable name="Y(1978,38)" index="235300" value="1"/>
  <variable name="Y(1994,2)" index="237168" value="1"/>
  <variable name="Y(2022,31)" index="240529" value="1"/>
  <variable name="Y(2058,12)" index="244794" value="1"/>
  <variable name="Y(2110,50)" index="251020" value="1"/>
  <variable name="Y(2136,21)" index="254085" value="1"/>
  <variable name="Y(2157,43)" index="256606" value="1"/>
  <variable name="Y(2179,8)" index="259189" value="1"/>
  <variable name="Y(2198,28)" index="261470" value="1"/>
  <variable name="Y(2276,60)" index="270784" value="1"/>
  <variable name="Y(2292,19)" index="272647" value="1"/>
  <variable name="Y(2320,33)" index="275993" value="1"/>
  <variable name="Y(2408,56)" index="286488" value="1"/>
  <variable name="Y(2459,55)" index="292556" value="1"/>
  <variable name="Y(2477,13)" index="294656" value="1"/>
  <variable name="Y(2498,35)" index="297177" value="1"/>
  <variable name="Y(2524,3)" index="300239" value="1"/>
  <variable name="Y(2562,52)" index="304810" value="1"/>
  <variable name="Y(2612,38)" index="310746" value="1"/>
  <variable name="Y(2663,51)" index="316828" value="1"/>
  <variable name="Y(2672,1)" index="317849" value="1"/>
  <variable name="Y(2707,38)" index="322051" value="1"/>
  <variable name="Y(2764,37)" index="328833" value="1"/>
  <variable name="Y(2837,40)" index="337523" value="1"/>
  <variable name="Y(2882,46)" index="342884" value="1"/>
  <variable name="Y(2905,16)" index="345591" value="1"/>
  <variable name="X(1,36,53)" index="348603" value="1"/>
  <variable name="X(1,62,2672)" index="354151" value="1"/>
  <variable name="X(2,5,92)" index="354500" value="1"/>
  <variable name="X(2,63,1994)" index="359331" value="1"/>
  <variable name="X(3,36,136)" index="360402" value="1"/>
  <variable name="X(3,64,2524)" index="365719" value="1"/>
  <variable name="X(4,38,168)" index="366292" value="1"/>
  <variable name="X(4,65,1628)" index="370681" value="1"/>
  <variable name="X(5,2,1994)" index="373976" value="1"/>
  <variable name="X(5,8,2179)" index="377090" value="1"/>
  <variable name="X(5,11,92)" index="377932" value="1"/>
  <variable name="X(5,56,404)" index="381173" value="1"/>
  <variable name="X(5,66,1782)" index="385480" value="1"/>
  <variable name="X(6,56,281)" index="386908" value="1"/>
  <variable name="X(6,67,1379)" index="390935" value="1"/>
  <variable name="X(7,46,2882)" index="395367" value="1"/>
  <variable name="X(7,56,2276)" index="397690" value="1"/>
  <variable name="X(7,68,417)" index="398760" value="1"/>
  <variable name="X(8,5,404)" index="401676" value="1"/>
  <variable name="X(8,69,2179)" index="406380" value="1"/>
  <variable name="X(9,23,428)" index="407558" value="1"/>
  <variable name="X(9,70,1073)" index="411132" value="1"/>
  <variable name="X(10,59,507)" index="413495" value="1"/>
  <variable name="X(10,71,1271)" index="417188" value="1"/>
  <variable name="X(11,5,2179)" index="421025" value="1"/>
  <variable name="X(11,22,1283)" index="423058" value="1"/>
  <variable name="X(11,45,92)" index="424796" value="1"/>
  <variable name="X(11,46,417)" index="428050" value="1"/>
  <variable name="X(11,56,1089)" index="431651" value="1"/>
  <variable name="X(11,72,306)" index="433797" value="1"/>
  <variable name="X(12,56,591)" index="437011" value="1"/>
  <variable name="X(12,73,2058)" index="441407" value="1"/>
  <variable name="X(13,21,643)" index="442921" value="1"/>
  <variable name="X(13,74,2477)" index="447684" value="1"/>
  <variable name="X(14,30,700)" index="448836" value="1"/>
  <variable name="X(14,75,1957)" index="453022" value="1"/>
  <variable name="X(15,27,1089)" index="455083" value="1"/>
  <variable name="X(15,30,1242)" index="458165" value="1"/>
  <variable name="X(15,35,2764)" index="462616" value="1"/>
  <variable name="X(15,36,2905)" index="465686" value="1"/>
  <variable name="X(15,47,1821)" index="467531" value="1"/>
  <variable name="X(15,50,2663)" index="471302" value="1"/>
  <variable name="X(15,56,2408)" index="473976" value="1"/>
  <variable name="X(15,58,1371)" index="475868" value="1"/>
  <variable name="X(15,76,1517)" index="478943" value="1"/>
  <variable name="X(16,36,2524)" index="482879" value="1"/>
  <variable name="X(16,38,2562)" index="485846" value="1"/>
  <variable name="X(16,54,404)" index="486617" value="1"/>
  <variable name="X(16,77,2905)" index="492047" value="1"/>
  <variable name="X(17,35,848)" index="492919" value="1"/>
  <variable name="X(17,78,1682)" index="496682" value="1"/>
  <variable name="X(18,35,881)" index="498810" value="1"/>
  <variable name="X(18,57,848)" index="501706" value="1"/>
  <variable name="X(18,79,1906)" index="505693" value="1"/>
  <variable name="X(19,22,2136)" index="508852" value="1"/>
  <variable name="X(19,42,996)" index="510641" value="1"/>
  <variable name="X(19,44,281)" index="512855" value="1"/>
  <variable name="X(19,50,2157)" index="517660" value="1"/>
  <variable name="X(19,56,2058)" index="520490" value="1"/>
  <variable name="X(19,80,2292)" index="523653" value="1"/>
  <variable name="X(20,22,996)" index="525286" value="1"/>
  <variable name="X(20,81,428)" index="527647" value="1"/>
  <variable name="X(21,13,2477)" index="532625" value="1"/>
  <variable name="X(21,22,643)" index="533720" value="1"/>
  <variable name="X(21,82,2136)" index="538142" value="1"/>
  <variable name="X(22,11,1089)" index="540024" value="1"/>
  <variable name="X(22,19,996)" index="542860" value="1"/>
  <variable name="X(22,20,428)" index="545221" value="1"/>
  <variable name="X(22,21,2136)" index="549858" value="1"/>
  <variable name="X(22,23,1196)" index="551847" value="1"/>
  <variable name="X(22,24,643)" index="554223" value="1"/>
  <variable name="X(22,83,1283)" index="557792" value="1"/>
  <variable name="X(23,9,1073)" index="560511" value="1"/>
  <variable name="X(23,22,428)" index="562795" value="1"/>
  <variable name="X(23,84,1196)" index="566492" value="1"/>
  <variable name="X(24,22,1196)" index="569421" value="1"/>
  <variable name="X(24,85,643)" index="571797" value="1"/>
  <variable name="X(25,38,1242)" index="575325" value="1"/>
  <variable name="X(25,86,168)" index="577180" value="1"/>
  <variable name="X(26,38,1271)" index="581212" value="1"/>
  <variable name="X(27,15,1371)" index="584241" value="1"/>
  <variable name="X(27,88,1089)" index="586888" value="1"/>
  <variable name="X(28,56,1379)" index="590107" value="1"/>
  <variable name="X(28,89,2198)" index="593855" value="1"/>
  <variable name="X(29,56,1452)" index="596038" value="1"/>
  <variable name="X(29,90,591)" index="598106" value="1"/>
  <variable name="X(30,14,1957)" index="602401" value="1"/>
  <variable name="X(30,15,1517)" index="604890" value="1"/>
  <variable name="X(30,31,2022)" index="608324" value="1"/>
  <variable name="X(30,60,700)" index="609931" value="1"/>
  <variable name="X(30,91,1242)" index="613402" value="1"/>
  <variable name="X(31,30,1517)" index="616606" value="1"/>
  <variable name="X(31,92,2022)" index="620040" value="1"/>
  <variable name="X(32,34,1554)" index="622501" value="1"/>
  <variable name="X(32,35,1628)" index="625504" value="1"/>
  <variable name="X(32,93,881)" index="627686" value="1"/>
  <variable name="X(33,50,1616)" index="631350" value="1"/>
  <variable name="X(33,94,2320)" index="634983" value="1"/>
  <variable name="X(34,32,1628)" index="637220" value="1"/>
  <variable name="X(34,95,1554)" index="640075" value="1"/>
  <variable name="X(35,15,1821)" index="643271" value="1"/>
  <variable name="X(35,17,1682)" index="646061" value="1"/>
  <variable name="X(35,18,848)" index="648156" value="1"/>
  <variable name="X(35,32,881)" index="651118" value="1"/>
  <variable name="X(35,36,1628)" index="654794" value="1"/>
  <variable name="X(35,37,2764)" index="658859" value="1"/>
  <variable name="X(35,96,2498)" index="661522" value="1"/>
  <variable name="X(36,1,2672)" index="664625" value="1"/>
  <variable name="X(36,3,2524)" index="667406" value="1"/>
  <variable name="X(36,15,1242)" index="669053" value="1"/>
  <variable name="X(36,16,2905)" index="673645" value="1"/>
  <variable name="X(36,35,2498)" index="676167" value="1"/>
  <variable name="X(36,38,1628)" index="678226" value="1"/>
  <variable name="X(36,53,502)" index="680029" value="1"/>
  <variable name="X(36,57,53)" index="682509" value="1"/>
  <variable name="X(36,97,136)" index="685521" value="1"/>
  <variable name="X(37,35,1821)" index="690135" value="1"/>
  <variable name="X(37,38,1782)" index="693025" value="1"/>
  <variable name="X(37,98,2764)" index="696936" value="1"/>
  <variable name="X(38,4,1628)" index="698729" value="1"/>
  <variable name="X(38,16,404)" index="700434" value="1"/>
  <variable name="X(38,25,168)" index="703127" value="1"/>
  <variable name="X(38,36,1242)" index="707130" value="1"/>
  <variable name="X(38,37,2707)" index="711524" value="1"/>
  <variable name="X(38,39,1978)" index="713724" value="1"/>
  <variable name="X(38,40,2837)" index="717512" value="1"/>
  <variable name="X(38,41,2459)" index="720063" value="1"/>
  <variable name="X(38,52,2562)" index="723095" value="1"/>
  <variable name="X(38,56,1782)" index="725244" value="1"/>
  <variable name="X(38,57,2612)" index="729003" value="1"/>
  <variable name="X(38,59,1271)" index="730591" value="1"/>
  <variable name="X(38,99,1925)" index="734174" value="1"/>
  <variable name="X(39,38,1925)" index="737103" value="1"/>
  <variable name="X(39,57,1906)" index="740013" value="1"/>
  <variable name="X(39,100,848)" index="741884" value="1"/>
  <variable name="X(40,38,1978)" index="745943" value="1"/>
  <variable name="X(40,60,2837)" index="749731" value="1"/>
  <variable name="X(40,101,1496)" index="751319" value="1"/>
  <variable name="X(41,38,2612)" index="755364" value="1"/>
  <variable name="X(41,55,2459)" index="758140" value="1"/>
  <variable name="X(41,60,2022)" index="760632" value="1"/>
  <variable name="X(41,102,700)" index="762239" value="1"/>
  <variable name="X(42,19,2058)" index="766526" value="1"/>
  <variable name="X(42,103,996)" index="768393" value="1"/>
  <variable name="X(43,50,2110)" index="772436" value="1"/>
  <variable name="X(43,104,2157)" index="775412" value="1"/>
  <variable name="X(44,19,2157)" index="778341" value="1"/>
  <variable name="X(44,105,281)" index="779394" value="1"/>
  <variable name="X(45,11,2179)" index="784221" value="1"/>
  <variable name="X(45,56,2198)" index="787169" value="1"/>
  <variable name="X(45,106,1452)" index="789352" value="1"/>
  <variable name="X(46,7,417)" index="791246" value="1"/>
  <variable name="X(46,11,306)" index="794064" value="1"/>
  <variable name="X(46,107,2882)" index="799569" value="1"/>
  <variable name="X(47,15,2905)" index="802521" value="1"/>
  <variable name="X(47,108,1821)" index="804366" value="1"/>
  <variable name="X(48,50,2292)" index="807766" value="1"/>
  <variable name="X(49,50,2320)" index="810723" value="1"/>
  <variable name="X(49,110,1616)" index="812948" value="1"/>
  <variable name="X(50,15,2408)" index="816669" value="1"/>
  <variable name="X(50,19,2292)" index="819482" value="1"/>
  <variable name="X(50,33,2320)" index="822439" value="1"/>
  <variable name="X(50,43,2157)" index="825205" value="1"/>
  <variable name="X(50,49,1616)" index="827593" value="1"/>
  <variable name="X(50,51,2663)" index="831569" value="1"/>
  <variable name="X(50,111,2110)" index="833945" value="1"/>
  <variable name="X(51,50,2408)" index="837172" value="1"/>
  <variable name="X(51,112,2663)" index="840356" value="1"/>
  <variable name="X(52,38,2459)" index="843081" value="1"/>
  <variable name="X(52,113,2562)" index="846113" value="1"/>
  <variable name="X(53,36,2498)" index="848978" value="1"/>
  <variable name="X(53,114,502)" index="849911" value="1"/>
  <variable name="X(54,16,2524)" index="854862" value="1"/>
  <variable name="X(54,115,404)" index="855671" value="1"/>
  <variable name="X(55,41,2612)" index="860808" value="1"/>
  <variable name="X(55,116,2459)" index="863584" value="1"/>
  <variable name="X(56,5,1782)" index="865836" value="1"/>
  <variable name="X(56,6,1379)" index="868362" value="1"/>
  <variable name="X(56,7,2882)" index="872794" value="1"/>
  <variable name="X(56,11,1283)" index="874124" value="1"/>
  <variable name="X(56,12,2058)" index="877828" value="1"/>
  <variable name="X(56,15,1089)" index="879788" value="1"/>
  <variable name="X(56,19,281)" index="881909" value="1"/>
  <variable name="X(56,28,2198)" index="886755" value="1"/>
  <variable name="X(56,29,591)" index="888077" value="1"/>
  <variable name="X(56,38,404)" index="890819" value="1"/>
  <variable name="X(56,45,1452)" index="894796" value="1"/>
  <variable name="X(56,60,2276)" index="898549" value="1"/>
  <variable name="X(56,117,2408)" index="901610" value="1"/>
  <variable name="X(57,18,1906)" index="904037" value="1"/>
  <variable name="X(57,36,2672)" index="907732" value="1"/>
  <variable name="X(57,38,2707)" index="910696" value="1"/>
  <variable name="X(57,39,848)" index="911766" value="1"/>
  <variable name="X(57,118,53)" index="913900" value="1"/>
  <variable name="X(58,15,2764)" index="919540" value="1"/>
  <variable name="X(58,119,1371)" index="921076" value="1"/>
  <variable name="X(59,10,1271)" index="923905" value="1"/>
  <variable name="X(59,38,2837)" index="928400" value="1"/>
  <variable name="X(59,120,507)" index="928999" value="1"/>
  <variable name="X(60,30,2022)" index="933443" value="1"/>
  <variable name="X(60,40,1496)" index="935846" value="1"/>
  <variable name="X(60,41,700)" index="937979" value="1"/>
  <variable name="X(60,56,2882)" index="943090" value="1"/>
  <variable name="X(60,121,2276)" index="945413" value="1"/>
  <variable name="X(61,47,2905)" index="948971" value="1"/>
 </variables>
</CPLEXSolution>
